Configuration:
CPXPARAM_Advance=1
CPXPARAM_Barrier_Algorithm=0
CPXPARAM_Barrier_ColNonzeros=0
CPXPARAM_Barrier_Crossover=0
CPXPARAM_Barrier_Limits_Corrections=-1
CPXPARAM_Barrier_Ordering=0
CPXPARAM_Barrier_StartAlg=1
CPXPARAM_Emphasis_MIP=2
CPXPARAM_Emphasis_Memory=0
CPXPARAM_Emphasis_Numerical=0
CPXPARAM_Feasopt_Mode=0
CPXPARAM_LPMethod=0
CPXPARAM_MIP_Cuts_Cliques=2
CPXPARAM_MIP_Cuts_Covers=0
CPXPARAM_MIP_Cuts_Disjunctive=-1
CPXPARAM_MIP_Cuts_FlowCovers=2
CPXPARAM_MIP_Cuts_GUBCovers=0
CPXPARAM_MIP_Cuts_Gomory=1
CPXPARAM_MIP_Cuts_Implied=-1
CPXPARAM_MIP_Cuts_MIRCut=0
CPXPARAM_MIP_Cuts_PathCut=-1
CPXPARAM_MIP_Limits_AggForCut=5
CPXPARAM_MIP_Limits_CutPasses=0
CPXPARAM_MIP_Limits_CutsFactor=-1
CPXPARAM_MIP_Limits_GomoryCand=400
CPXPARAM_MIP_Limits_GomoryPass=0
CPXPARAM_MIP_Limits_Nodes=9223372036800000000
CPXPARAM_MIP_Limits_ProbeTime=1e+75
CPXPARAM_MIP_Limits_RepairTries=0
CPXPARAM_MIP_Limits_StrongCand=10
CPXPARAM_MIP_Limits_StrongIt=0
CPXPARAM_MIP_OrderType=0
CPXPARAM_MIP_Strategy_BBInterval=7
CPXPARAM_MIP_Strategy_Branch=0
CPXPARAM_MIP_Strategy_Dive=0
CPXPARAM_MIP_Strategy_File=1
CPXPARAM_MIP_Strategy_HeuristicFreq=0
CPXPARAM_MIP_Strategy_LBHeur=0
CPXPARAM_MIP_Strategy_NodeSelect=1
CPXPARAM_MIP_Strategy_Order=1
CPXPARAM_MIP_Strategy_PresolveNode=0
CPXPARAM_MIP_Strategy_Probe=0
CPXPARAM_MIP_Strategy_RINSHeur=0
CPXPARAM_MIP_Strategy_StartAlgorithm=0
CPXPARAM_MIP_Strategy_SubAlgorithm=3
CPXPARAM_MIP_Strategy_VariableSelect=3
CPXPARAM_Network_NetFind=2
CPXPARAM_Network_Pricing=0
CPXPARAM_Parallel=1
CPXPARAM_Preprocessing_Aggregator=-1
CPXPARAM_Preprocessing_BoundStrength=-1
CPXPARAM_Preprocessing_CoeffReduce=2
CPXPARAM_Preprocessing_Dependency=-1
CPXPARAM_Preprocessing_Dual=0
CPXPARAM_Preprocessing_Fill=10
CPXPARAM_Preprocessing_NumPass=-1
CPXPARAM_Preprocessing_Presolve=1
CPXPARAM_Preprocessing_QPMakePSD=1
CPXPARAM_Preprocessing_Reduce=3
CPXPARAM_Preprocessing_Relax=-1
CPXPARAM_Preprocessing_RepeatPresolve=-1
CPXPARAM_Preprocessing_Symmetry=-1
CPXPARAM_Read_Scale=0
CPXPARAM_Sifting_Algorithm=0
CPXPARAM_Simplex_Crash=1
CPXPARAM_Simplex_DGradient=0
CPXPARAM_Simplex_Limits_Perturbation=0
CPXPARAM_Simplex_Limits_Singularity=10
CPXPARAM_Simplex_PGradient=0
CPXPARAM_Simplex_Pricing=0
CPXPARAM_Simplex_Refactor=0
ObjectiveValue=39.83
Gap=39.83
UpperBound=2.1008e+06
LowerBound=1.26397e+06
TimeEvaluated=328
MipStartUsed=0
ProducedMipStart=0
EndConfiguration
Configuration:
CPXPARAM_Advance=1
CPXPARAM_Barrier_Algorithm=0
CPXPARAM_Barrier_ColNonzeros=0
CPXPARAM_Barrier_Crossover=0
CPXPARAM_Barrier_Limits_Corrections=-1
CPXPARAM_Barrier_Ordering=0
CPXPARAM_Barrier_StartAlg=1
CPXPARAM_Emphasis_MIP=2
CPXPARAM_Emphasis_Memory=0
CPXPARAM_Emphasis_Numerical=0
CPXPARAM_Feasopt_Mode=0
CPXPARAM_LPMethod=0
CPXPARAM_MIP_Cuts_Cliques=2
CPXPARAM_MIP_Cuts_Covers=0
CPXPARAM_MIP_Cuts_Disjunctive=-1
CPXPARAM_MIP_Cuts_FlowCovers=2
CPXPARAM_MIP_Cuts_GUBCovers=0
CPXPARAM_MIP_Cuts_Gomory=-1
CPXPARAM_MIP_Cuts_Implied=-1
CPXPARAM_MIP_Cuts_MIRCut=0
CPXPARAM_MIP_Cuts_PathCut=-1
CPXPARAM_MIP_Limits_AggForCut=5
CPXPARAM_MIP_Limits_CutPasses=0
CPXPARAM_MIP_Limits_CutsFactor=-1
CPXPARAM_MIP_Limits_GomoryCand=400
CPXPARAM_MIP_Limits_GomoryPass=0
CPXPARAM_MIP_Limits_Nodes=9223372036800000000
CPXPARAM_MIP_Limits_ProbeTime=1e+75
CPXPARAM_MIP_Limits_RepairTries=0
CPXPARAM_MIP_Limits_StrongCand=10
CPXPARAM_MIP_Limits_StrongIt=0
CPXPARAM_MIP_OrderType=0
CPXPARAM_MIP_Strategy_BBInterval=7
CPXPARAM_MIP_Strategy_Branch=0
CPXPARAM_MIP_Strategy_Dive=0
CPXPARAM_MIP_Strategy_File=1
CPXPARAM_MIP_Strategy_HeuristicFreq=0
CPXPARAM_MIP_Strategy_LBHeur=0
CPXPARAM_MIP_Strategy_NodeSelect=1
CPXPARAM_MIP_Strategy_Order=1
CPXPARAM_MIP_Strategy_PresolveNode=0
CPXPARAM_MIP_Strategy_Probe=0
CPXPARAM_MIP_Strategy_RINSHeur=0
CPXPARAM_MIP_Strategy_StartAlgorithm=0
CPXPARAM_MIP_Strategy_SubAlgorithm=3
CPXPARAM_MIP_Strategy_VariableSelect=3
CPXPARAM_Network_NetFind=2
CPXPARAM_Network_Pricing=0
CPXPARAM_Parallel=1
CPXPARAM_Preprocessing_Aggregator=-1
CPXPARAM_Preprocessing_BoundStrength=-1
CPXPARAM_Preprocessing_CoeffReduce=2
CPXPARAM_Preprocessing_Dependency=-1
CPXPARAM_Preprocessing_Dual=0
CPXPARAM_Preprocessing_Fill=10
CPXPARAM_Preprocessing_NumPass=-1
CPXPARAM_Preprocessing_Presolve=1
CPXPARAM_Preprocessing_QPMakePSD=1
CPXPARAM_Preprocessing_Reduce=3
CPXPARAM_Preprocessing_Relax=-1
CPXPARAM_Preprocessing_RepeatPresolve=-1
CPXPARAM_Preprocessing_Symmetry=-1
CPXPARAM_Read_Scale=0
CPXPARAM_Sifting_Algorithm=0
CPXPARAM_Simplex_Crash=1
CPXPARAM_Simplex_DGradient=0
CPXPARAM_Simplex_Limits_Perturbation=0
CPXPARAM_Simplex_Limits_Singularity=10
CPXPARAM_Simplex_PGradient=0
CPXPARAM_Simplex_Pricing=0
CPXPARAM_Simplex_Refactor=0
ObjectiveValue=39.34
Gap=39.34
UpperBound=2.08337e+06
LowerBound=1.26369e+06
TimeEvaluated=334
MipStartUsed=0
ProducedMipStart=0
EndConfiguration
Configuration:
CPXPARAM_Advance=1
CPXPARAM_Barrier_Algorithm=0
CPXPARAM_Barrier_ColNonzeros=0
CPXPARAM_Barrier_Crossover=0
CPXPARAM_Barrier_Limits_Corrections=-1
CPXPARAM_Barrier_Ordering=0
CPXPARAM_Barrier_StartAlg=1
CPXPARAM_Emphasis_MIP=2
CPXPARAM_Emphasis_Memory=0
CPXPARAM_Emphasis_Numerical=0
CPXPARAM_Feasopt_Mode=0
CPXPARAM_LPMethod=0
CPXPARAM_MIP_Cuts_Cliques=2
CPXPARAM_MIP_Cuts_Covers=0
CPXPARAM_MIP_Cuts_Disjunctive=-1
CPXPARAM_MIP_Cuts_FlowCovers=2
CPXPARAM_MIP_Cuts_GUBCovers=-1
CPXPARAM_MIP_Cuts_Gomory=-1
CPXPARAM_MIP_Cuts_Implied=-1
CPXPARAM_MIP_Cuts_MIRCut=0
CPXPARAM_MIP_Cuts_PathCut=-1
CPXPARAM_MIP_Limits_AggForCut=5
CPXPARAM_MIP_Limits_CutPasses=0
CPXPARAM_MIP_Limits_CutsFactor=-1
CPXPARAM_MIP_Limits_GomoryCand=400
CPXPARAM_MIP_Limits_GomoryPass=0
CPXPARAM_MIP_Limits_Nodes=9223372036800000000
CPXPARAM_MIP_Limits_ProbeTime=1e+75
CPXPARAM_MIP_Limits_RepairTries=0
CPXPARAM_MIP_Limits_StrongCand=10
CPXPARAM_MIP_Limits_StrongIt=0
CPXPARAM_MIP_OrderType=0
CPXPARAM_MIP_Strategy_BBInterval=7
CPXPARAM_MIP_Strategy_Branch=0
CPXPARAM_MIP_Strategy_Dive=0
CPXPARAM_MIP_Strategy_File=1
CPXPARAM_MIP_Strategy_HeuristicFreq=0
CPXPARAM_MIP_Strategy_LBHeur=0
CPXPARAM_MIP_Strategy_NodeSelect=1
CPXPARAM_MIP_Strategy_Order=1
CPXPARAM_MIP_Strategy_PresolveNode=0
CPXPARAM_MIP_Strategy_Probe=0
CPXPARAM_MIP_Strategy_RINSHeur=0
CPXPARAM_MIP_Strategy_StartAlgorithm=0
CPXPARAM_MIP_Strategy_SubAlgorithm=3
CPXPARAM_MIP_Strategy_VariableSelect=3
CPXPARAM_Network_NetFind=2
CPXPARAM_Network_Pricing=0
CPXPARAM_Parallel=1
CPXPARAM_Preprocessing_Aggregator=-1
CPXPARAM_Preprocessing_BoundStrength=-1
CPXPARAM_Preprocessing_CoeffReduce=2
CPXPARAM_Preprocessing_Dependency=-1
CPXPARAM_Preprocessing_Dual=0
CPXPARAM_Preprocessing_Fill=10
CPXPARAM_Preprocessing_NumPass=-1
CPXPARAM_Preprocessing_Presolve=1
CPXPARAM_Preprocessing_QPMakePSD=1
CPXPARAM_Preprocessing_Reduce=3
CPXPARAM_Preprocessing_Relax=-1
CPXPARAM_Preprocessing_RepeatPresolve=-1
CPXPARAM_Preprocessing_Symmetry=-1
CPXPARAM_Read_Scale=0
CPXPARAM_Sifting_Algorithm=0
CPXPARAM_Simplex_Crash=1
CPXPARAM_Simplex_DGradient=0
CPXPARAM_Simplex_Limits_Perturbation=0
CPXPARAM_Simplex_Limits_Singularity=10
CPXPARAM_Simplex_PGradient=0
CPXPARAM_Simplex_Pricing=0
CPXPARAM_Simplex_Refactor=0
ObjectiveValue=39.34
Gap=39.34
UpperBound=2.08337e+06
LowerBound=1.26369e+06
TimeEvaluated=341
MipStartUsed=0
ProducedMipStart=0
EndConfiguration
Configuration:
CPXPARAM_Advance=1
CPXPARAM_Barrier_Algorithm=0
CPXPARAM_Barrier_ColNonzeros=0
CPXPARAM_Barrier_Crossover=0
CPXPARAM_Barrier_Limits_Corrections=-1
CPXPARAM_Barrier_Ordering=0
CPXPARAM_Barrier_StartAlg=1
CPXPARAM_Emphasis_MIP=2
CPXPARAM_Emphasis_Memory=0
CPXPARAM_Emphasis_Numerical=0
CPXPARAM_Feasopt_Mode=0
CPXPARAM_LPMethod=0
CPXPARAM_MIP_Cuts_Cliques=2
CPXPARAM_MIP_Cuts_Covers=0
CPXPARAM_MIP_Cuts_Disjunctive=-1
CPXPARAM_MIP_Cuts_FlowCovers=-1
CPXPARAM_MIP_Cuts_GUBCovers=0
CPXPARAM_MIP_Cuts_Gomory=-1
CPXPARAM_MIP_Cuts_Implied=-1
CPXPARAM_MIP_Cuts_MIRCut=0
CPXPARAM_MIP_Cuts_PathCut=-1
CPXPARAM_MIP_Limits_AggForCut=5
CPXPARAM_MIP_Limits_CutPasses=0
CPXPARAM_MIP_Limits_CutsFactor=-1
CPXPARAM_MIP_Limits_GomoryCand=400
CPXPARAM_MIP_Limits_GomoryPass=0
CPXPARAM_MIP_Limits_Nodes=9223372036800000000
CPXPARAM_MIP_Limits_ProbeTime=1e+75
CPXPARAM_MIP_Limits_RepairTries=0
CPXPARAM_MIP_Limits_StrongCand=10
CPXPARAM_MIP_Limits_StrongIt=0
CPXPARAM_MIP_OrderType=0
CPXPARAM_MIP_Strategy_BBInterval=7
CPXPARAM_MIP_Strategy_Branch=0
CPXPARAM_MIP_Strategy_Dive=0
CPXPARAM_MIP_Strategy_File=1
CPXPARAM_MIP_Strategy_HeuristicFreq=0
CPXPARAM_MIP_Strategy_LBHeur=0
CPXPARAM_MIP_Strategy_NodeSelect=1
CPXPARAM_MIP_Strategy_Order=1
CPXPARAM_MIP_Strategy_PresolveNode=0
CPXPARAM_MIP_Strategy_Probe=0
CPXPARAM_MIP_Strategy_RINSHeur=0
CPXPARAM_MIP_Strategy_StartAlgorithm=0
CPXPARAM_MIP_Strategy_SubAlgorithm=3
CPXPARAM_MIP_Strategy_VariableSelect=3
CPXPARAM_Network_NetFind=2
CPXPARAM_Network_Pricing=0
CPXPARAM_Parallel=1
CPXPARAM_Preprocessing_Aggregator=-1
CPXPARAM_Preprocessing_BoundStrength=-1
CPXPARAM_Preprocessing_CoeffReduce=2
CPXPARAM_Preprocessing_Dependency=-1
CPXPARAM_Preprocessing_Dual=0
CPXPARAM_Preprocessing_Fill=10
CPXPARAM_Preprocessing_NumPass=-1
CPXPARAM_Preprocessing_Presolve=1
CPXPARAM_Preprocessing_QPMakePSD=1
CPXPARAM_Preprocessing_Reduce=3
CPXPARAM_Preprocessing_Relax=-1
CPXPARAM_Preprocessing_RepeatPresolve=-1
CPXPARAM_Preprocessing_Symmetry=-1
CPXPARAM_Read_Scale=0
CPXPARAM_Sifting_Algorithm=0
CPXPARAM_Simplex_Crash=1
CPXPARAM_Simplex_DGradient=0
CPXPARAM_Simplex_Limits_Perturbation=0
CPXPARAM_Simplex_Limits_Singularity=10
CPXPARAM_Simplex_PGradient=0
CPXPARAM_Simplex_Pricing=0
CPXPARAM_Simplex_Refactor=0
ObjectiveValue=37.86
Gap=37.86
UpperBound=2.1008e+06
LowerBound=1.30547e+06
TimeEvaluated=348
MipStartUsed=0
ProducedMipStart=0
EndConfiguration
Configuration:
CPXPARAM_Advance=1
CPXPARAM_Barrier_Algorithm=0
CPXPARAM_Barrier_ColNonzeros=0
CPXPARAM_Barrier_Crossover=0
CPXPARAM_Barrier_Limits_Corrections=-1
CPXPARAM_Barrier_Ordering=0
CPXPARAM_Barrier_StartAlg=1
CPXPARAM_Emphasis_MIP=2
CPXPARAM_Emphasis_Memory=0
CPXPARAM_Emphasis_Numerical=0
CPXPARAM_Feasopt_Mode=0
CPXPARAM_LPMethod=0
CPXPARAM_MIP_Cuts_Cliques=2
CPXPARAM_MIP_Cuts_Covers=0
CPXPARAM_MIP_Cuts_Disjunctive=-1
CPXPARAM_MIP_Cuts_FlowCovers=-1
CPXPARAM_MIP_Cuts_GUBCovers=0
CPXPARAM_MIP_Cuts_Gomory=2
CPXPARAM_MIP_Cuts_Implied=-1
CPXPARAM_MIP_Cuts_MIRCut=0
CPXPARAM_MIP_Cuts_PathCut=-1
CPXPARAM_MIP_Limits_AggForCut=5
CPXPARAM_MIP_Limits_CutPasses=0
CPXPARAM_MIP_Limits_CutsFactor=-1
CPXPARAM_MIP_Limits_GomoryCand=400
CPXPARAM_MIP_Limits_GomoryPass=0
CPXPARAM_MIP_Limits_Nodes=9223372036800000000
CPXPARAM_MIP_Limits_ProbeTime=1e+75
CPXPARAM_MIP_Limits_RepairTries=0
CPXPARAM_MIP_Limits_StrongCand=10
CPXPARAM_MIP_Limits_StrongIt=0
CPXPARAM_MIP_OrderType=0
CPXPARAM_MIP_Strategy_BBInterval=7
CPXPARAM_MIP_Strategy_Branch=0
CPXPARAM_MIP_Strategy_Dive=0
CPXPARAM_MIP_Strategy_File=1
CPXPARAM_MIP_Strategy_HeuristicFreq=0
CPXPARAM_MIP_Strategy_LBHeur=0
CPXPARAM_MIP_Strategy_NodeSelect=1
CPXPARAM_MIP_Strategy_Order=1
CPXPARAM_MIP_Strategy_PresolveNode=0
CPXPARAM_MIP_Strategy_Probe=0
CPXPARAM_MIP_Strategy_RINSHeur=0
CPXPARAM_MIP_Strategy_StartAlgorithm=0
CPXPARAM_MIP_Strategy_SubAlgorithm=3
CPXPARAM_MIP_Strategy_VariableSelect=3
CPXPARAM_Network_NetFind=2
CPXPARAM_Network_Pricing=0
CPXPARAM_Parallel=1
CPXPARAM_Preprocessing_Aggregator=-1
CPXPARAM_Preprocessing_BoundStrength=-1
CPXPARAM_Preprocessing_CoeffReduce=2
CPXPARAM_Preprocessing_Dependency=-1
CPXPARAM_Preprocessing_Dual=0
CPXPARAM_Preprocessing_Fill=10
CPXPARAM_Preprocessing_NumPass=-1
CPXPARAM_Preprocessing_Presolve=1
CPXPARAM_Preprocessing_QPMakePSD=1
CPXPARAM_Preprocessing_Reduce=3
CPXPARAM_Preprocessing_Relax=-1
CPXPARAM_Preprocessing_RepeatPresolve=-1
CPXPARAM_Preprocessing_Symmetry=-1
CPXPARAM_Read_Scale=0
CPXPARAM_Sifting_Algorithm=0
CPXPARAM_Simplex_Crash=1
CPXPARAM_Simplex_DGradient=0
CPXPARAM_Simplex_Limits_Perturbation=0
CPXPARAM_Simplex_Limits_Singularity=10
CPXPARAM_Simplex_PGradient=0
CPXPARAM_Simplex_Pricing=0
CPXPARAM_Simplex_Refactor=0
ObjectiveValue=39.3
Gap=39.3
UpperBound=2.08337e+06
LowerBound=1.2647e+06
TimeEvaluated=355
MipStartUsed=0
ProducedMipStart=0
EndConfiguration
Configuration:
CPXPARAM_Advance=1
CPXPARAM_Barrier_Algorithm=0
CPXPARAM_Barrier_ColNonzeros=0
CPXPARAM_Barrier_Crossover=0
CPXPARAM_Barrier_Limits_Corrections=-1
CPXPARAM_Barrier_Ordering=0
CPXPARAM_Barrier_StartAlg=1
CPXPARAM_Emphasis_MIP=2
CPXPARAM_Emphasis_Memory=0
CPXPARAM_Emphasis_Numerical=0
CPXPARAM_Feasopt_Mode=0
CPXPARAM_LPMethod=0
CPXPARAM_MIP_Cuts_Cliques=2
CPXPARAM_MIP_Cuts_Covers=0
CPXPARAM_MIP_Cuts_Disjunctive=-1
CPXPARAM_MIP_Cuts_FlowCovers=-1
CPXPARAM_MIP_Cuts_GUBCovers=0
CPXPARAM_MIP_Cuts_Gomory=-1
CPXPARAM_MIP_Cuts_Implied=-1
CPXPARAM_MIP_Cuts_MIRCut=1
CPXPARAM_MIP_Cuts_PathCut=-1
CPXPARAM_MIP_Limits_AggForCut=5
CPXPARAM_MIP_Limits_CutPasses=0
CPXPARAM_MIP_Limits_CutsFactor=-1
CPXPARAM_MIP_Limits_GomoryCand=400
CPXPARAM_MIP_Limits_GomoryPass=0
CPXPARAM_MIP_Limits_Nodes=9223372036800000000
CPXPARAM_MIP_Limits_ProbeTime=1e+75
CPXPARAM_MIP_Limits_RepairTries=0
CPXPARAM_MIP_Limits_StrongCand=10
CPXPARAM_MIP_Limits_StrongIt=0
CPXPARAM_MIP_OrderType=0
CPXPARAM_MIP_Strategy_BBInterval=7
CPXPARAM_MIP_Strategy_Branch=0
CPXPARAM_MIP_Strategy_Dive=0
CPXPARAM_MIP_Strategy_File=1
CPXPARAM_MIP_Strategy_HeuristicFreq=0
CPXPARAM_MIP_Strategy_LBHeur=0
CPXPARAM_MIP_Strategy_NodeSelect=1
CPXPARAM_MIP_Strategy_Order=1
CPXPARAM_MIP_Strategy_PresolveNode=0
CPXPARAM_MIP_Strategy_Probe=0
CPXPARAM_MIP_Strategy_RINSHeur=0
CPXPARAM_MIP_Strategy_StartAlgorithm=0
CPXPARAM_MIP_Strategy_SubAlgorithm=3
CPXPARAM_MIP_Strategy_VariableSelect=3
CPXPARAM_Network_NetFind=2
CPXPARAM_Network_Pricing=0
CPXPARAM_Parallel=1
CPXPARAM_Preprocessing_Aggregator=-1
CPXPARAM_Preprocessing_BoundStrength=-1
CPXPARAM_Preprocessing_CoeffReduce=2
CPXPARAM_Preprocessing_Dependency=-1
CPXPARAM_Preprocessing_Dual=0
CPXPARAM_Preprocessing_Fill=10
CPXPARAM_Preprocessing_NumPass=-1
CPXPARAM_Preprocessing_Presolve=1
CPXPARAM_Preprocessing_QPMakePSD=1
CPXPARAM_Preprocessing_Reduce=3
CPXPARAM_Preprocessing_Relax=-1
CPXPARAM_Preprocessing_RepeatPresolve=-1
CPXPARAM_Preprocessing_Symmetry=-1
CPXPARAM_Read_Scale=0
CPXPARAM_Sifting_Algorithm=0
CPXPARAM_Simplex_Crash=1
CPXPARAM_Simplex_DGradient=0
CPXPARAM_Simplex_Limits_Perturbation=0
CPXPARAM_Simplex_Limits_Singularity=10
CPXPARAM_Simplex_PGradient=0
CPXPARAM_Simplex_Pricing=0
CPXPARAM_Simplex_Refactor=0
ObjectiveValue=37.73
Gap=37.73
UpperBound=2.1008e+06
LowerBound=1.30815e+06
TimeEvaluated=362
MipStartUsed=0
ProducedMipStart=0
EndConfiguration
Configuration:
CPXPARAM_Advance=1
CPXPARAM_Barrier_Algorithm=0
CPXPARAM_Barrier_ColNonzeros=0
CPXPARAM_Barrier_Crossover=0
CPXPARAM_Barrier_Limits_Corrections=-1
CPXPARAM_Barrier_Ordering=0
CPXPARAM_Barrier_StartAlg=1
CPXPARAM_Emphasis_MIP=2
CPXPARAM_Emphasis_Memory=0
CPXPARAM_Emphasis_Numerical=0
CPXPARAM_Feasopt_Mode=0
CPXPARAM_LPMethod=0
CPXPARAM_MIP_Cuts_Cliques=2
CPXPARAM_MIP_Cuts_Covers=0
CPXPARAM_MIP_Cuts_Disjunctive=-1
CPXPARAM_MIP_Cuts_FlowCovers=-1
CPXPARAM_MIP_Cuts_GUBCovers=0
CPXPARAM_MIP_Cuts_Gomory=-1
CPXPARAM_MIP_Cuts_Implied=-1
CPXPARAM_MIP_Cuts_MIRCut=1
CPXPARAM_MIP_Cuts_PathCut=-1
CPXPARAM_MIP_Limits_AggForCut=1
CPXPARAM_MIP_Limits_CutPasses=0
CPXPARAM_MIP_Limits_CutsFactor=-1
CPXPARAM_MIP_Limits_GomoryCand=400
CPXPARAM_MIP_Limits_GomoryPass=0
CPXPARAM_MIP_Limits_Nodes=9223372036800000000
CPXPARAM_MIP_Limits_ProbeTime=1e+75
CPXPARAM_MIP_Limits_RepairTries=0
CPXPARAM_MIP_Limits_StrongCand=10
CPXPARAM_MIP_Limits_StrongIt=0
CPXPARAM_MIP_OrderType=0
CPXPARAM_MIP_Strategy_BBInterval=7
CPXPARAM_MIP_Strategy_Branch=0
CPXPARAM_MIP_Strategy_Dive=0
CPXPARAM_MIP_Strategy_File=1
CPXPARAM_MIP_Strategy_HeuristicFreq=0
CPXPARAM_MIP_Strategy_LBHeur=0
CPXPARAM_MIP_Strategy_NodeSelect=1
CPXPARAM_MIP_Strategy_Order=1
CPXPARAM_MIP_Strategy_PresolveNode=0
CPXPARAM_MIP_Strategy_Probe=0
CPXPARAM_MIP_Strategy_RINSHeur=0
CPXPARAM_MIP_Strategy_StartAlgorithm=0
CPXPARAM_MIP_Strategy_SubAlgorithm=3
CPXPARAM_MIP_Strategy_VariableSelect=3
CPXPARAM_Network_NetFind=2
CPXPARAM_Network_Pricing=0
CPXPARAM_Parallel=1
CPXPARAM_Preprocessing_Aggregator=-1
CPXPARAM_Preprocessing_BoundStrength=-1
CPXPARAM_Preprocessing_CoeffReduce=2
CPXPARAM_Preprocessing_Dependency=-1
CPXPARAM_Preprocessing_Dual=0
CPXPARAM_Preprocessing_Fill=10
CPXPARAM_Preprocessing_NumPass=-1
CPXPARAM_Preprocessing_Presolve=1
CPXPARAM_Preprocessing_QPMakePSD=1
CPXPARAM_Preprocessing_Reduce=3
CPXPARAM_Preprocessing_Relax=-1
CPXPARAM_Preprocessing_RepeatPresolve=-1
CPXPARAM_Preprocessing_Symmetry=-1
CPXPARAM_Read_Scale=0
CPXPARAM_Sifting_Algorithm=0
CPXPARAM_Simplex_Crash=1
CPXPARAM_Simplex_DGradient=0
CPXPARAM_Simplex_Limits_Perturbation=0
CPXPARAM_Simplex_Limits_Singularity=10
CPXPARAM_Simplex_PGradient=0
CPXPARAM_Simplex_Pricing=0
CPXPARAM_Simplex_Refactor=0
ObjectiveValue=58.35
Gap=58.35
UpperBound=2.08337e+06
LowerBound=867738
TimeEvaluated=369
MipStartUsed=0
ProducedMipStart=0
EndConfiguration
Configuration:
CPXPARAM_Advance=1
CPXPARAM_Barrier_Algorithm=0
CPXPARAM_Barrier_ColNonzeros=0
CPXPARAM_Barrier_Crossover=0
CPXPARAM_Barrier_Limits_Corrections=-1
CPXPARAM_Barrier_Ordering=0
CPXPARAM_Barrier_StartAlg=1
CPXPARAM_Emphasis_MIP=2
CPXPARAM_Emphasis_Memory=0
CPXPARAM_Emphasis_Numerical=0
CPXPARAM_Feasopt_Mode=0
CPXPARAM_LPMethod=0
CPXPARAM_MIP_Cuts_Cliques=2
CPXPARAM_MIP_Cuts_Covers=0
CPXPARAM_MIP_Cuts_Disjunctive=-1
CPXPARAM_MIP_Cuts_FlowCovers=-1
CPXPARAM_MIP_Cuts_GUBCovers=0
CPXPARAM_MIP_Cuts_Gomory=-1
CPXPARAM_MIP_Cuts_Implied=-1
CPXPARAM_MIP_Cuts_MIRCut=1
CPXPARAM_MIP_Cuts_PathCut=2
CPXPARAM_MIP_Limits_AggForCut=5
CPXPARAM_MIP_Limits_CutPasses=0
CPXPARAM_MIP_Limits_CutsFactor=-1
CPXPARAM_MIP_Limits_GomoryCand=400
CPXPARAM_MIP_Limits_GomoryPass=0
CPXPARAM_MIP_Limits_Nodes=9223372036800000000
CPXPARAM_MIP_Limits_ProbeTime=1e+75
CPXPARAM_MIP_Limits_RepairTries=0
CPXPARAM_MIP_Limits_StrongCand=10
CPXPARAM_MIP_Limits_StrongIt=0
CPXPARAM_MIP_OrderType=0
CPXPARAM_MIP_Strategy_BBInterval=7
CPXPARAM_MIP_Strategy_Branch=0
CPXPARAM_MIP_Strategy_Dive=0
CPXPARAM_MIP_Strategy_File=1
CPXPARAM_MIP_Strategy_HeuristicFreq=0
CPXPARAM_MIP_Strategy_LBHeur=0
CPXPARAM_MIP_Strategy_NodeSelect=1
CPXPARAM_MIP_Strategy_Order=1
CPXPARAM_MIP_Strategy_PresolveNode=0
CPXPARAM_MIP_Strategy_Probe=0
CPXPARAM_MIP_Strategy_RINSHeur=0
CPXPARAM_MIP_Strategy_StartAlgorithm=0
CPXPARAM_MIP_Strategy_SubAlgorithm=3
CPXPARAM_MIP_Strategy_VariableSelect=3
CPXPARAM_Network_NetFind=2
CPXPARAM_Network_Pricing=0
CPXPARAM_Parallel=1
CPXPARAM_Preprocessing_Aggregator=-1
CPXPARAM_Preprocessing_BoundStrength=-1
CPXPARAM_Preprocessing_CoeffReduce=2
CPXPARAM_Preprocessing_Dependency=-1
CPXPARAM_Preprocessing_Dual=0
CPXPARAM_Preprocessing_Fill=10
CPXPARAM_Preprocessing_NumPass=-1
CPXPARAM_Preprocessing_Presolve=1
CPXPARAM_Preprocessing_QPMakePSD=1
CPXPARAM_Preprocessing_Reduce=3
CPXPARAM_Preprocessing_Relax=-1
CPXPARAM_Preprocessing_RepeatPresolve=-1
CPXPARAM_Preprocessing_Symmetry=-1
CPXPARAM_Read_Scale=0
CPXPARAM_Sifting_Algorithm=0
CPXPARAM_Simplex_Crash=1
CPXPARAM_Simplex_DGradient=0
CPXPARAM_Simplex_Limits_Perturbation=0
CPXPARAM_Simplex_Limits_Singularity=10
CPXPARAM_Simplex_PGradient=0
CPXPARAM_Simplex_Pricing=0
CPXPARAM_Simplex_Refactor=0
ObjectiveValue=38.09
Gap=38.09
UpperBound=2.08337e+06
LowerBound=1.28989e+06
TimeEvaluated=376
MipStartUsed=0
ProducedMipStart=0
EndConfiguration
Configuration:
CPXPARAM_Advance=1
CPXPARAM_Barrier_Algorithm=0
CPXPARAM_Barrier_ColNonzeros=0
CPXPARAM_Barrier_Crossover=0
CPXPARAM_Barrier_Limits_Corrections=-1
CPXPARAM_Barrier_Ordering=0
CPXPARAM_Barrier_StartAlg=1
CPXPARAM_Emphasis_MIP=2
CPXPARAM_Emphasis_Memory=0
CPXPARAM_Emphasis_Numerical=0
CPXPARAM_Feasopt_Mode=0
CPXPARAM_LPMethod=0
CPXPARAM_MIP_Cuts_Cliques=2
CPXPARAM_MIP_Cuts_Covers=0
CPXPARAM_MIP_Cuts_Disjunctive=-1
CPXPARAM_MIP_Cuts_FlowCovers=-1
CPXPARAM_MIP_Cuts_GUBCovers=0
CPXPARAM_MIP_Cuts_Gomory=-1
CPXPARAM_MIP_Cuts_Implied=-1
CPXPARAM_MIP_Cuts_MIRCut=1
CPXPARAM_MIP_Cuts_PathCut=-1
CPXPARAM_MIP_Limits_AggForCut=5
CPXPARAM_MIP_Limits_CutPasses=0
CPXPARAM_MIP_Limits_CutsFactor=-1
CPXPARAM_MIP_Limits_GomoryCand=400
CPXPARAM_MIP_Limits_GomoryPass=0
CPXPARAM_MIP_Limits_Nodes=9223372036800000000
CPXPARAM_MIP_Limits_ProbeTime=1e+75
CPXPARAM_MIP_Limits_RepairTries=0
CPXPARAM_MIP_Limits_StrongCand=10
CPXPARAM_MIP_Limits_StrongIt=0
CPXPARAM_MIP_OrderType=0
CPXPARAM_MIP_Strategy_BBInterval=7
CPXPARAM_MIP_Strategy_Branch=0
CPXPARAM_MIP_Strategy_Dive=0
CPXPARAM_MIP_Strategy_File=1
CPXPARAM_MIP_Strategy_HeuristicFreq=0
CPXPARAM_MIP_Strategy_LBHeur=0
CPXPARAM_MIP_Strategy_NodeSelect=1
CPXPARAM_MIP_Strategy_Order=1
CPXPARAM_MIP_Strategy_PresolveNode=0
CPXPARAM_MIP_Strategy_Probe=0
CPXPARAM_MIP_Strategy_RINSHeur=0
CPXPARAM_MIP_Strategy_StartAlgorithm=0
CPXPARAM_MIP_Strategy_SubAlgorithm=3
CPXPARAM_MIP_Strategy_VariableSelect=3
CPXPARAM_Network_NetFind=2
CPXPARAM_Network_Pricing=0
CPXPARAM_Parallel=1
CPXPARAM_Preprocessing_Aggregator=-1
CPXPARAM_Preprocessing_BoundStrength=-1
CPXPARAM_Preprocessing_CoeffReduce=0
CPXPARAM_Preprocessing_Dependency=-1
CPXPARAM_Preprocessing_Dual=0
CPXPARAM_Preprocessing_Fill=10
CPXPARAM_Preprocessing_NumPass=-1
CPXPARAM_Preprocessing_Presolve=1
CPXPARAM_Preprocessing_QPMakePSD=1
CPXPARAM_Preprocessing_Reduce=3
CPXPARAM_Preprocessing_Relax=-1
CPXPARAM_Preprocessing_RepeatPresolve=-1
CPXPARAM_Preprocessing_Symmetry=-1
CPXPARAM_Read_Scale=0
CPXPARAM_Sifting_Algorithm=0
CPXPARAM_Simplex_Crash=1
CPXPARAM_Simplex_DGradient=0
CPXPARAM_Simplex_Limits_Perturbation=0
CPXPARAM_Simplex_Limits_Singularity=10
CPXPARAM_Simplex_PGradient=0
CPXPARAM_Simplex_Pricing=0
CPXPARAM_Simplex_Refactor=0
ObjectiveValue=38.05
Gap=38.05
UpperBound=2.14111e+06
LowerBound=1.32648e+06
TimeEvaluated=383
MipStartUsed=0
ProducedMipStart=0
EndConfiguration
Configuration:
CPXPARAM_Advance=1
CPXPARAM_Barrier_Algorithm=0
CPXPARAM_Barrier_ColNonzeros=0
CPXPARAM_Barrier_Crossover=0
CPXPARAM_Barrier_Limits_Corrections=-1
CPXPARAM_Barrier_Ordering=0
CPXPARAM_Barrier_StartAlg=1
CPXPARAM_Emphasis_MIP=2
CPXPARAM_Emphasis_Memory=0
CPXPARAM_Emphasis_Numerical=0
CPXPARAM_Feasopt_Mode=0
CPXPARAM_LPMethod=0
CPXPARAM_MIP_Cuts_Cliques=2
CPXPARAM_MIP_Cuts_Covers=0
CPXPARAM_MIP_Cuts_Disjunctive=-1
CPXPARAM_MIP_Cuts_FlowCovers=-1
CPXPARAM_MIP_Cuts_GUBCovers=0
CPXPARAM_MIP_Cuts_Gomory=-1
CPXPARAM_MIP_Cuts_Implied=-1
CPXPARAM_MIP_Cuts_MIRCut=1
CPXPARAM_MIP_Cuts_PathCut=-1
CPXPARAM_MIP_Limits_AggForCut=0
CPXPARAM_MIP_Limits_CutPasses=0
CPXPARAM_MIP_Limits_CutsFactor=-1
CPXPARAM_MIP_Limits_GomoryCand=400
CPXPARAM_MIP_Limits_GomoryPass=0
CPXPARAM_MIP_Limits_Nodes=9223372036800000000
CPXPARAM_MIP_Limits_ProbeTime=1e+75
CPXPARAM_MIP_Limits_RepairTries=0
CPXPARAM_MIP_Limits_StrongCand=10
CPXPARAM_MIP_Limits_StrongIt=0
CPXPARAM_MIP_OrderType=0
CPXPARAM_MIP_Strategy_BBInterval=7
CPXPARAM_MIP_Strategy_Branch=0
CPXPARAM_MIP_Strategy_Dive=0
CPXPARAM_MIP_Strategy_File=1
CPXPARAM_MIP_Strategy_HeuristicFreq=0
CPXPARAM_MIP_Strategy_LBHeur=0
CPXPARAM_MIP_Strategy_NodeSelect=1
CPXPARAM_MIP_Strategy_Order=1
CPXPARAM_MIP_Strategy_PresolveNode=0
CPXPARAM_MIP_Strategy_Probe=0
CPXPARAM_MIP_Strategy_RINSHeur=0
CPXPARAM_MIP_Strategy_StartAlgorithm=0
CPXPARAM_MIP_Strategy_SubAlgorithm=3
CPXPARAM_MIP_Strategy_VariableSelect=3
CPXPARAM_Network_NetFind=2
CPXPARAM_Network_Pricing=0
CPXPARAM_Parallel=1
CPXPARAM_Preprocessing_Aggregator=-1
CPXPARAM_Preprocessing_BoundStrength=-1
CPXPARAM_Preprocessing_CoeffReduce=2
CPXPARAM_Preprocessing_Dependency=-1
CPXPARAM_Preprocessing_Dual=0
CPXPARAM_Preprocessing_Fill=10
CPXPARAM_Preprocessing_NumPass=-1
CPXPARAM_Preprocessing_Presolve=1
CPXPARAM_Preprocessing_QPMakePSD=1
CPXPARAM_Preprocessing_Reduce=3
CPXPARAM_Preprocessing_Relax=-1
CPXPARAM_Preprocessing_RepeatPresolve=-1
CPXPARAM_Preprocessing_Symmetry=-1
CPXPARAM_Read_Scale=0
CPXPARAM_Sifting_Algorithm=0
CPXPARAM_Simplex_Crash=1
CPXPARAM_Simplex_DGradient=0
CPXPARAM_Simplex_Limits_Perturbation=0
CPXPARAM_Simplex_Limits_Singularity=10
CPXPARAM_Simplex_PGradient=0
CPXPARAM_Simplex_Pricing=0
CPXPARAM_Simplex_Refactor=0
ObjectiveValue=63.45
Gap=63.45
UpperBound=2.08337e+06
LowerBound=761563
TimeEvaluated=390
MipStartUsed=0
ProducedMipStart=0
EndConfiguration
Configuration:
CPXPARAM_Advance=1
CPXPARAM_Barrier_Algorithm=0
CPXPARAM_Barrier_ColNonzeros=0
CPXPARAM_Barrier_Crossover=0
CPXPARAM_Barrier_Limits_Corrections=-1
CPXPARAM_Barrier_Ordering=0
CPXPARAM_Barrier_StartAlg=1
CPXPARAM_Emphasis_MIP=2
CPXPARAM_Emphasis_Memory=0
CPXPARAM_Emphasis_Numerical=0
CPXPARAM_Feasopt_Mode=0
CPXPARAM_LPMethod=0
CPXPARAM_MIP_Cuts_Cliques=2
CPXPARAM_MIP_Cuts_Covers=0
CPXPARAM_MIP_Cuts_Disjunctive=-1
CPXPARAM_MIP_Cuts_FlowCovers=-1
CPXPARAM_MIP_Cuts_GUBCovers=0
CPXPARAM_MIP_Cuts_Gomory=-1
CPXPARAM_MIP_Cuts_Implied=-1
CPXPARAM_MIP_Cuts_MIRCut=1
CPXPARAM_MIP_Cuts_PathCut=-1
CPXPARAM_MIP_Limits_AggForCut=5
CPXPARAM_MIP_Limits_CutPasses=0
CPXPARAM_MIP_Limits_CutsFactor=-1
CPXPARAM_MIP_Limits_GomoryCand=400
CPXPARAM_MIP_Limits_GomoryPass=0
CPXPARAM_MIP_Limits_Nodes=9223372036800000000
CPXPARAM_MIP_Limits_ProbeTime=1e+75
CPXPARAM_MIP_Limits_RepairTries=0
CPXPARAM_MIP_Limits_StrongCand=10
CPXPARAM_MIP_Limits_StrongIt=0
CPXPARAM_MIP_OrderType=0
CPXPARAM_MIP_Strategy_BBInterval=7
CPXPARAM_MIP_Strategy_Branch=0
CPXPARAM_MIP_Strategy_Dive=0
CPXPARAM_MIP_Strategy_File=1
CPXPARAM_MIP_Strategy_HeuristicFreq=0
CPXPARAM_MIP_Strategy_LBHeur=0
CPXPARAM_MIP_Strategy_NodeSelect=1
CPXPARAM_MIP_Strategy_Order=1
CPXPARAM_MIP_Strategy_PresolveNode=0
CPXPARAM_MIP_Strategy_Probe=0
CPXPARAM_MIP_Strategy_RINSHeur=0
CPXPARAM_MIP_Strategy_StartAlgorithm=0
CPXPARAM_MIP_Strategy_SubAlgorithm=3
CPXPARAM_MIP_Strategy_VariableSelect=-1
CPXPARAM_Network_NetFind=2
CPXPARAM_Network_Pricing=0
CPXPARAM_Parallel=1
CPXPARAM_Preprocessing_Aggregator=-1
CPXPARAM_Preprocessing_BoundStrength=-1
CPXPARAM_Preprocessing_CoeffReduce=2
CPXPARAM_Preprocessing_Dependency=-1
CPXPARAM_Preprocessing_Dual=0
CPXPARAM_Preprocessing_Fill=10
CPXPARAM_Preprocessing_NumPass=-1
CPXPARAM_Preprocessing_Presolve=1
CPXPARAM_Preprocessing_QPMakePSD=1
CPXPARAM_Preprocessing_Reduce=3
CPXPARAM_Preprocessing_Relax=-1
CPXPARAM_Preprocessing_RepeatPresolve=-1
CPXPARAM_Preprocessing_Symmetry=-1
CPXPARAM_Read_Scale=0
CPXPARAM_Sifting_Algorithm=0
CPXPARAM_Simplex_Crash=1
CPXPARAM_Simplex_DGradient=0
CPXPARAM_Simplex_Limits_Perturbation=0
CPXPARAM_Simplex_Limits_Singularity=10
CPXPARAM_Simplex_PGradient=0
CPXPARAM_Simplex_Pricing=0
CPXPARAM_Simplex_Refactor=0
ObjectiveValue=90.59
Gap=90.59
UpperBound=1.38961e+07
LowerBound=1.30815e+06
TimeEvaluated=397
MipStartUsed=0
ProducedMipStart=0
EndConfiguration
Configuration:
CPXPARAM_Advance=1
CPXPARAM_Barrier_Algorithm=0
CPXPARAM_Barrier_ColNonzeros=0
CPXPARAM_Barrier_Crossover=0
CPXPARAM_Barrier_Limits_Corrections=-1
CPXPARAM_Barrier_Ordering=0
CPXPARAM_Barrier_StartAlg=1
CPXPARAM_Emphasis_MIP=2
CPXPARAM_Emphasis_Memory=0
CPXPARAM_Emphasis_Numerical=0
CPXPARAM_Feasopt_Mode=0
CPXPARAM_LPMethod=0
CPXPARAM_MIP_Cuts_Cliques=2
CPXPARAM_MIP_Cuts_Covers=0
CPXPARAM_MIP_Cuts_Disjunctive=-1
CPXPARAM_MIP_Cuts_FlowCovers=-1
CPXPARAM_MIP_Cuts_GUBCovers=0
CPXPARAM_MIP_Cuts_Gomory=-1
CPXPARAM_MIP_Cuts_Implied=-1
CPXPARAM_MIP_Cuts_MIRCut=1
CPXPARAM_MIP_Cuts_PathCut=-1
CPXPARAM_MIP_Limits_AggForCut=5
CPXPARAM_MIP_Limits_CutPasses=0
CPXPARAM_MIP_Limits_CutsFactor=-1
CPXPARAM_MIP_Limits_GomoryCand=400
CPXPARAM_MIP_Limits_GomoryPass=0
CPXPARAM_MIP_Limits_Nodes=9223372036800000000
CPXPARAM_MIP_Limits_ProbeTime=1e+75
CPXPARAM_MIP_Limits_RepairTries=0
CPXPARAM_MIP_Limits_StrongCand=10
CPXPARAM_MIP_Limits_StrongIt=0
CPXPARAM_MIP_OrderType=0
CPXPARAM_MIP_Strategy_BBInterval=7
CPXPARAM_MIP_Strategy_Branch=0
CPXPARAM_MIP_Strategy_Dive=0
CPXPARAM_MIP_Strategy_File=1
CPXPARAM_MIP_Strategy_HeuristicFreq=0
CPXPARAM_MIP_Strategy_LBHeur=0
CPXPARAM_MIP_Strategy_NodeSelect=1
CPXPARAM_MIP_Strategy_Order=1
CPXPARAM_MIP_Strategy_PresolveNode=0
CPXPARAM_MIP_Strategy_Probe=0
CPXPARAM_MIP_Strategy_RINSHeur=0
CPXPARAM_MIP_Strategy_StartAlgorithm=0
CPXPARAM_MIP_Strategy_SubAlgorithm=3
CPXPARAM_MIP_Strategy_VariableSelect=3
CPXPARAM_Network_NetFind=2
CPXPARAM_Network_Pricing=0
CPXPARAM_Parallel=1
CPXPARAM_Preprocessing_Aggregator=-1
CPXPARAM_Preprocessing_BoundStrength=-1
CPXPARAM_Preprocessing_CoeffReduce=1
CPXPARAM_Preprocessing_Dependency=-1
CPXPARAM_Preprocessing_Dual=0
CPXPARAM_Preprocessing_Fill=10
CPXPARAM_Preprocessing_NumPass=-1
CPXPARAM_Preprocessing_Presolve=1
CPXPARAM_Preprocessing_QPMakePSD=1
CPXPARAM_Preprocessing_Reduce=3
CPXPARAM_Preprocessing_Relax=-1
CPXPARAM_Preprocessing_RepeatPresolve=-1
CPXPARAM_Preprocessing_Symmetry=-1
CPXPARAM_Read_Scale=0
CPXPARAM_Sifting_Algorithm=0
CPXPARAM_Simplex_Crash=1
CPXPARAM_Simplex_DGradient=0
CPXPARAM_Simplex_Limits_Perturbation=0
CPXPARAM_Simplex_Limits_Singularity=10
CPXPARAM_Simplex_PGradient=0
CPXPARAM_Simplex_Pricing=0
CPXPARAM_Simplex_Refactor=0
ObjectiveValue=90.55
Gap=90.55
UpperBound=1.38961e+07
LowerBound=1.31329e+06
TimeEvaluated=403
MipStartUsed=0
ProducedMipStart=0
EndConfiguration
Configuration:
CPXPARAM_Advance=1
CPXPARAM_Barrier_Algorithm=0
CPXPARAM_Barrier_ColNonzeros=0
CPXPARAM_Barrier_Crossover=0
CPXPARAM_Barrier_Limits_Corrections=-1
CPXPARAM_Barrier_Ordering=0
CPXPARAM_Barrier_StartAlg=1
CPXPARAM_Emphasis_MIP=2
CPXPARAM_Emphasis_Memory=0
CPXPARAM_Emphasis_Numerical=0
CPXPARAM_Feasopt_Mode=0
CPXPARAM_LPMethod=0
CPXPARAM_MIP_Cuts_Cliques=2
CPXPARAM_MIP_Cuts_Covers=0
CPXPARAM_MIP_Cuts_Disjunctive=-1
CPXPARAM_MIP_Cuts_FlowCovers=-1
CPXPARAM_MIP_Cuts_GUBCovers=0
CPXPARAM_MIP_Cuts_Gomory=-1
CPXPARAM_MIP_Cuts_Implied=-1
CPXPARAM_MIP_Cuts_MIRCut=1
CPXPARAM_MIP_Cuts_PathCut=-1
CPXPARAM_MIP_Limits_AggForCut=5
CPXPARAM_MIP_Limits_CutPasses=0
CPXPARAM_MIP_Limits_CutsFactor=-1
CPXPARAM_MIP_Limits_GomoryCand=400
CPXPARAM_MIP_Limits_GomoryPass=0
CPXPARAM_MIP_Limits_Nodes=9223372036800000000
CPXPARAM_MIP_Limits_ProbeTime=1e+75
CPXPARAM_MIP_Limits_RepairTries=0
CPXPARAM_MIP_Limits_StrongCand=10
CPXPARAM_MIP_Limits_StrongIt=0
CPXPARAM_MIP_OrderType=0
CPXPARAM_MIP_Strategy_BBInterval=7
CPXPARAM_MIP_Strategy_Branch=0
CPXPARAM_MIP_Strategy_Dive=0
CPXPARAM_MIP_Strategy_File=1
CPXPARAM_MIP_Strategy_HeuristicFreq=0
CPXPARAM_MIP_Strategy_LBHeur=0
CPXPARAM_MIP_Strategy_NodeSelect=1
CPXPARAM_MIP_Strategy_Order=1
CPXPARAM_MIP_Strategy_PresolveNode=0
CPXPARAM_MIP_Strategy_Probe=0
CPXPARAM_MIP_Strategy_RINSHeur=0
CPXPARAM_MIP_Strategy_StartAlgorithm=0
CPXPARAM_MIP_Strategy_SubAlgorithm=3
CPXPARAM_MIP_Strategy_VariableSelect=2
CPXPARAM_Network_NetFind=2
CPXPARAM_Network_Pricing=0
CPXPARAM_Parallel=1
CPXPARAM_Preprocessing_Aggregator=-1
CPXPARAM_Preprocessing_BoundStrength=-1
CPXPARAM_Preprocessing_CoeffReduce=2
CPXPARAM_Preprocessing_Dependency=-1
CPXPARAM_Preprocessing_Dual=0
CPXPARAM_Preprocessing_Fill=10
CPXPARAM_Preprocessing_NumPass=-1
CPXPARAM_Preprocessing_Presolve=1
CPXPARAM_Preprocessing_QPMakePSD=1
CPXPARAM_Preprocessing_Reduce=3
CPXPARAM_Preprocessing_Relax=-1
CPXPARAM_Preprocessing_RepeatPresolve=-1
CPXPARAM_Preprocessing_Symmetry=-1
CPXPARAM_Read_Scale=0
CPXPARAM_Sifting_Algorithm=0
CPXPARAM_Simplex_Crash=1
CPXPARAM_Simplex_DGradient=0
CPXPARAM_Simplex_Limits_Perturbation=0
CPXPARAM_Simplex_Limits_Singularity=10
CPXPARAM_Simplex_PGradient=0
CPXPARAM_Simplex_Pricing=0
CPXPARAM_Simplex_Refactor=0
ObjectiveValue=90.59
Gap=90.59
UpperBound=1.38961e+07
LowerBound=1.30815e+06
TimeEvaluated=410
MipStartUsed=0
ProducedMipStart=0
EndConfiguration
Configuration:
CPXPARAM_Advance=1
CPXPARAM_Barrier_Algorithm=0
CPXPARAM_Barrier_ColNonzeros=0
CPXPARAM_Barrier_Crossover=0
CPXPARAM_Barrier_Limits_Corrections=-1
CPXPARAM_Barrier_Ordering=0
CPXPARAM_Barrier_StartAlg=1
CPXPARAM_Emphasis_MIP=2
CPXPARAM_Emphasis_Memory=0
CPXPARAM_Emphasis_Numerical=0
CPXPARAM_Feasopt_Mode=0
CPXPARAM_LPMethod=0
CPXPARAM_MIP_Cuts_Cliques=2
CPXPARAM_MIP_Cuts_Covers=0
CPXPARAM_MIP_Cuts_Disjunctive=-1
CPXPARAM_MIP_Cuts_FlowCovers=-1
CPXPARAM_MIP_Cuts_GUBCovers=0
CPXPARAM_MIP_Cuts_Gomory=-1
CPXPARAM_MIP_Cuts_Implied=-1
CPXPARAM_MIP_Cuts_MIRCut=1
CPXPARAM_MIP_Cuts_PathCut=-1
CPXPARAM_MIP_Limits_AggForCut=3
CPXPARAM_MIP_Limits_CutPasses=0
CPXPARAM_MIP_Limits_CutsFactor=-1
CPXPARAM_MIP_Limits_GomoryCand=400
CPXPARAM_MIP_Limits_GomoryPass=0
CPXPARAM_MIP_Limits_Nodes=9223372036800000000
CPXPARAM_MIP_Limits_ProbeTime=1e+75
CPXPARAM_MIP_Limits_RepairTries=0
CPXPARAM_MIP_Limits_StrongCand=10
CPXPARAM_MIP_Limits_StrongIt=0
CPXPARAM_MIP_OrderType=0
CPXPARAM_MIP_Strategy_BBInterval=7
CPXPARAM_MIP_Strategy_Branch=0
CPXPARAM_MIP_Strategy_Dive=0
CPXPARAM_MIP_Strategy_File=1
CPXPARAM_MIP_Strategy_HeuristicFreq=0
CPXPARAM_MIP_Strategy_LBHeur=0
CPXPARAM_MIP_Strategy_NodeSelect=1
CPXPARAM_MIP_Strategy_Order=1
CPXPARAM_MIP_Strategy_PresolveNode=0
CPXPARAM_MIP_Strategy_Probe=0
CPXPARAM_MIP_Strategy_RINSHeur=0
CPXPARAM_MIP_Strategy_StartAlgorithm=0
CPXPARAM_MIP_Strategy_SubAlgorithm=3
CPXPARAM_MIP_Strategy_VariableSelect=3
CPXPARAM_Network_NetFind=2
CPXPARAM_Network_Pricing=0
CPXPARAM_Parallel=1
CPXPARAM_Preprocessing_Aggregator=-1
CPXPARAM_Preprocessing_BoundStrength=-1
CPXPARAM_Preprocessing_CoeffReduce=2
CPXPARAM_Preprocessing_Dependency=-1
CPXPARAM_Preprocessing_Dual=0
CPXPARAM_Preprocessing_Fill=10
CPXPARAM_Preprocessing_NumPass=-1
CPXPARAM_Preprocessing_Presolve=1
CPXPARAM_Preprocessing_QPMakePSD=1
CPXPARAM_Preprocessing_Reduce=3
CPXPARAM_Preprocessing_Relax=-1
CPXPARAM_Preprocessing_RepeatPresolve=-1
CPXPARAM_Preprocessing_Symmetry=-1
CPXPARAM_Read_Scale=0
CPXPARAM_Sifting_Algorithm=0
CPXPARAM_Simplex_Crash=1
CPXPARAM_Simplex_DGradient=0
CPXPARAM_Simplex_Limits_Perturbation=0
CPXPARAM_Simplex_Limits_Singularity=10
CPXPARAM_Simplex_PGradient=0
CPXPARAM_Simplex_Pricing=0
CPXPARAM_Simplex_Refactor=0
ObjectiveValue=40.05
Gap=40.05
UpperBound=2.1008e+06
LowerBound=1.25943e+06
TimeEvaluated=417
MipStartUsed=0
ProducedMipStart=0
EndConfiguration
